216
31
19
141
163
163
199
51
85
145
57
89
148
208
38
49
83
243
77
123
51
188
150
194
38
26
112
217
210
73
220
61
160
163
60
204
227
197
63
57
16
170
130
77
52
86
224
168
92
201
97
82
184
151
149
105
67
134
173
79
59
244
154
142
171
90
37
141
178
43
127
237
113
135
129
160
188
93
131
245
199
58
144
207
106
165
14
73
115
172
126
106
150
120
146
247
198
169
122
176

